41
Lattice="12.283717155456543 0 0 3.9999999899009708e-06 10.637375831604004 0 0 0 30" Properties=species:S:1:pos:R:3 pbc="T T T"
Li 4.639239311 9.63574791 1.275510669
Li 2.62742734 3.180483341 7.635721207
Li 5.126716137 0.2579675615 6.204984665
Li 2.906783581 8.998509407 6.678469181
Li 11.12790012 4.519838333 0.2143689394
Li 5.72223711 1.374712825 3.489565611
Mo 1.5775913 9.811142921 3.921931505
Mo 5.69969368 7.51654768 3.860227346
Mo 1.841925502 2.550314426 3.7924366
Mo 2.226825476 6.168557644 3.78075099
Mo 5.415932655 4.639715195 3.752340317
Mo 8.213358879 9.290740013 3.915587902
Mo 11.44288635 7.843979836 3.715167046
Mo 8.257038116 2.73428297 3.732956409
Mo 11.54389191 1.013834 3.887946129
Mo 8.053171158 6.090173244 3.804366827
Mo 11.37133884 4.285178661 3.702797174
Te 0.9272341728 7.642050266 5.748101234
Te 3.953037977 0.6635416746 8.217917442
Te 1.267950892 7.892949581 1.907910228
Te 4.235199451 9.889968872 3.814716816
Te 1.305168271 0.8853524923 5.948784828
Te 4.229833603 2.685493946 5.384414196
Te 1.007545352 0.7723432183 1.901309371
Te 4.197492599 2.528366566 1.806642532
Te 0.9971196055 4.237760067 5.602910995
Te 4.154252529 6.090382099 5.760224819
Te 0.999306798 4.562900543 1.985499024
Te 4.345557213 6.394619942 1.835870862
Te 7.386402607 7.827053547 6.039061069
Te 10.38951874 9.735450745 5.485693455
Te 7.463288307 7.824926376 1.758847237
Te 10.41790581 9.761021614 2.046032667
Te 7.552361488 0.8025298715 5.518930912
Te 10.24538803 2.630953074 5.566518307
Te 7.414530754 0.5391949415 2.006865978
Te 10.37151814 2.561093092 1.85186398
Te 7.233515263 4.385440826 5.750630856
Te 10.27464485 5.984363079 5.427861691
Te 7.264810085 4.2782197 1.838922381
Te 10.18695068 6.211704731 2.011708021
