7
Lattice="5.591760158538818 0.0 0.0 0.0 3.4388198852539062 0.0 0.0 0.0 30.0" Properties=species:S:1:pos:R:3:forces:R:3 virial="14.511357307434082 0.6640242338180542 0.8963928818702698 0.6640242338180542 7.8119797706604 1.3595352172851562 0.8963928818702698 1.3595352172851562 5.3380889892578125" energy=-39.25362674 pbc="T T T"
Li       4.71205997       1.48175001       7.43171978       0.50652802       0.80927801       0.87225401
Mo       2.12387991       3.43241000       3.92875004      -0.26426899      -0.00556600      -0.05536900
Mo       4.91976023       1.71299005       3.92875004      -0.04354600       0.03620700      -0.19828001
Te       1.22203004       1.71300995       5.79143000       0.45974401      -0.00066100       0.74213898
Te       4.01791000       3.43242001       5.79143000      -0.79164100      -0.83424097      -0.40924099
Te       1.22292995       1.71301997       2.06563997       0.00325500       0.00686600      -0.45111099
Te       4.01880980       3.43243003       2.06563997       0.12992901      -0.01188200      -0.50039202
